2412, 0, 0, 74, 1
2413, 0, 1, 93, 0
2414, 0, 2, 58, 3
2415, 0, 3, 93, 2
2416, 1, 0, 48, 2
2417, 1, 1, 44, 3
2418, 1, 2, 92, 1
2419, 1, 3, 68, 0
2420, 2, 0, 77, 2
2421, 2, 1, 85, 1
2422, 2, 2, 56, 0
2423, 2, 3, 98, 3
2424, 3, 0, 65, 2
2425, 3, 1, 59, 3
2426, 3, 2, 93, 1
2427, 3, 3, 76, 0